tsp_instances/TSP50/instance70.tsp
NODE_COORD_SECTION
0 78 70
1 60 96
2 52 123
3 172 61
4 164 187
5 77 8
6 170 134
7 58 84
8 169 190
9 177 189
10 9 32
11 34 148
12 41 159
13 122 120
14 150 21
15 142 181
16 97 24
17 164 180
18 162 92
19 149 100
20 32 70
21 19 126
22 78 42
23 7 54
24 104 116
25 142 6
26 104 87
27 91 139
28 65 26
29 8 14
30 163 126
31 126 106
32 178 62
33 88 48
34 81 178
35 22 39
36 101 115
37 70 183
38 46 32
39 197 139
40 105 21
41 108 41
42 114 27
43 168 92
44 61 83
45 70 72
46 146 178
47 30 87
48 104 86
49 178 186
