tsp_instances/TSP50/instance70.opt.tour
TOUR_SECTION
1
46
45
8
2
48
21
24
11
30
36
39
29
6
23
34
42
17
41
43
26
15
4
33
44
19
20
31
7
40
50
10
9
5
18
47
16
35
38
13
12
22
3
28
37
25
14
32
27
49
-1